c description: Random 2-CNF over 15 variables and 30 clauses
c generator: CNFgen (0.9.0)
c copyright: (C) 2012-2020 Massimo Lauria <massimo.lauria@uniroma1.it>
c url: https://massimolauria.net/cnfgen
c
p cnf 15 30
8 -12 0
4 -8 0
2 13 0
-2 -14 0
-6 -15 0
-5 8 0
2 11 0
4 -10 0
-3 -5 0
1 8 0
-5 15 0
3 11 0
2 -5 0
-3 -8 0
-3 8 0
-3 13 0
10 -15 0
-3 -15 0
-2 -15 0
-5 13 0
12 14 0
-9 -13 0
6 13 0
8 13 0
-4 11 0
-1 -4 0
10 -12 0
11 -14 0
-7 11 0
-4 -14 0